data/lp_files/pEFS/74_1.lp
\ Model foo
\ LP format - for model browsing. Use MPS format to capture full model detail.
Minimize
  z
Subject To
 allocateEach[1]: x[1,1] + x[2,1] + x[3,1] + x[4,1] = 1
 allocateEach[2]: x[1,2] + x[2,2] + x[3,2] + x[4,2] = 1
 allocateEach[3]: x[1,3] + x[2,3] + x[3,3] + x[4,3] = 1
 allocateEach[4]: x[1,4] + x[2,4] + x[3,4] + x[4,4] = 1
 allocateEach[5]: x[1,5] + x[2,5] + x[3,5] + x[4,5] = 1
 allocateEach[6]: x[1,6] + x[2,6] + x[3,6] + x[4,6] = 1
 allocateEach[7]: x[1,7] + x[2,7] + x[3,7] + x[4,7] = 1
 allocateEach[8]: x[1,8] + x[2,8] + x[3,8] + x[4,8] = 1
 allocateEach[9]: x[1,9] + x[2,9] + x[3,9] + x[4,9] = 1
 allocateEach[10]: x[1,10] + x[2,10] + x[3,10] + x[4,10] = 1
 allocateEach[11]: x[1,11] + x[2,11] + x[3,11] + x[4,11] = 1
 allocateEach[12]: x[1,12] + x[2,12] + x[3,12] + x[4,12] = 1
 allocateEach[13]: x[1,13] + x[2,13] + x[3,13] + x[4,13] = 1
 allocateEach[14]: x[1,14] + x[2,14] + x[3,14] + x[4,14] = 1
 allocateAllCash: cashProportion[1] + cashProportion[2] + cashProportion[3]
   + cashProportion[4] = 1
 findWorstP[1,2]: z + 0.0133488179621695 cashProportion[1]
   - 0.0133488179621695 cashProportion[2] + 0.1255856793880902 x[1,1]
   + 0.0155914193798139 x[1,2] + 0.0226262464458772 x[1,3]
   + 0.0516065302417471 x[1,4] + 0.0481758840254696 x[1,5]
   + 0.1020383645028233 x[1,6] + 0.0784376543457077 x[1,7]
   + 0.0925874013856073 x[1,8] + 0.1216744757251745 x[1,9]
   + 0.1293900925073085 x[1,10] + 0.0316900938421903 x[1,11]
   + 0.0336523700826292 x[1,12] + 0.1035868273864349 x[1,13]
   + 0.0300081427789569 x[1,14] - 0.1255856793880902 x[2,1]
   - 0.0155914193798139 x[2,2] - 0.0226262464458772 x[2,3]
   - 0.0516065302417471 x[2,4] - 0.0481758840254696 x[2,5]
   - 0.1020383645028233 x[2,6] - 0.0784376543457077 x[2,7]
   - 0.0925874013856073 x[2,8] - 0.1216744757251745 x[2,9]
   - 0.1293900925073085 x[2,10] - 0.0316900938421903 x[2,11]
   - 0.0336523700826292 x[2,12] - 0.1035868273864349 x[2,13]
   - 0.0300081427789569 x[2,14] >= 0
 findWorstP[1,3]: z + 0.0133488179621695 cashProportion[1]
   - 0.0133488179621695 cashProportion[3] + 0.1255856793880902 x[1,1]
   + 0.0155914193798139 x[1,2] + 0.0226262464458772 x[1,3]
   + 0.0516065302417471 x[1,4] + 0.0481758840254696 x[1,5]
   + 0.1020383645028233 x[1,6] + 0.0784376543457077 x[1,7]
   + 0.0925874013856073 x[1,8] + 0.1216744757251745 x[1,9]
   + 0.1293900925073085 x[1,10] + 0.0316900938421903 x[1,11]
   + 0.0336523700826292 x[1,12] + 0.1035868273864349 x[1,13]
   + 0.0300081427789569 x[1,14] - 0.1255856793880902 x[3,1]
   - 0.0155914193798139 x[3,2] - 0.0226262464458772 x[3,3]
   - 0.0516065302417471 x[3,4] - 0.0481758840254696 x[3,5]
   - 0.1020383645028233 x[3,6] - 0.0784376543457077 x[3,7]
   - 0.0925874013856073 x[3,8] - 0.1216744757251745 x[3,9]
   - 0.1293900925073085 x[3,10] - 0.0316900938421903 x[3,11]
   - 0.0336523700826292 x[3,12] - 0.1035868273864349 x[3,13]
   - 0.0300081427789569 x[3,14] >= 0
 findWorstP[1,4]: z + 0.0133488179621695 cashProportion[1]
   - 0.0133488179621695 cashProportion[4] + 0.1255856793880902 x[1,1]
   + 0.0155914193798139 x[1,2] + 0.0226262464458772 x[1,3]
   + 0.0516065302417471 x[1,4] + 0.0481758840254696 x[1,5]
   + 0.1020383645028233 x[1,6] + 0.0784376543457077 x[1,7]
   + 0.0925874013856073 x[1,8] + 0.1216744757251745 x[1,9]
   + 0.1293900925073085 x[1,10] + 0.0316900938421903 x[1,11]
   + 0.0336523700826292 x[1,12] + 0.1035868273864349 x[1,13]
   + 0.0300081427789569 x[1,14] - 0.1255856793880902 x[4,1]
   - 0.0155914193798139 x[4,2] - 0.0226262464458772 x[4,3]
   - 0.0516065302417471 x[4,4] - 0.0481758840254696 x[4,5]
   - 0.1020383645028233 x[4,6] - 0.0784376543457077 x[4,7]
   - 0.0925874013856073 x[4,8] - 0.1216744757251745 x[4,9]
   - 0.1293900925073085 x[4,10] - 0.0316900938421903 x[4,11]
   - 0.0336523700826292 x[4,12] - 0.1035868273864349 x[4,13]
   - 0.0300081427789569 x[4,14] >= 0
 findWorstP[2,1]: z - 0.017792961104587 cashProportion[1]
   + 0.017792961104587 cashProportion[2] - 0.00907441016333938 x[1,1]
   - 0.0943738656987296 x[1,2] - 0.0815985196256361 x[1,3]
   - 0.1467207572684246 x[1,4] - 0.0878616419344507 x[1,5]
   - 0.0933062880324544 x[1,6] - 0.0386996904024768 x[1,7]
   - 0.0891249421728764 x[1,8] - 0.1206718622113092 x[1,9]
   - 0.0311376819330273 x[1,10] - 0.0306394790220989 x[1,11]
   - 0.0822568591865058 x[1,12] - 0.0222412013807338 x[1,13]
   - 0.0544998398633501 x[1,14] + 0.00907441016333938 x[2,1]
   + 0.0943738656987296 x[2,2] + 0.0815985196256361 x[2,3]
   + 0.1467207572684246 x[2,4] + 0.0878616419344507 x[2,5]
   + 0.0933062880324544 x[2,6] + 0.0386996904024768 x[2,7]
   + 0.0891249421728764 x[2,8] + 0.1206718622113092 x[2,9]
   + 0.0311376819330273 x[2,10] + 0.0306394790220989 x[2,11]
   + 0.0822568591865058 x[2,12] + 0.0222412013807338 x[2,13]
   + 0.0544998398633501 x[2,14] >= 0
 findWorstP[2,3]: z + 0.017792961104587 cashProportion[2]
   - 0.017792961104587 cashProportion[3] + 0.00907441016333938 x[2,1]
   + 0.0943738656987296 x[2,2] + 0.0815985196256361 x[2,3]
   + 0.1467207572684246 x[2,4] + 0.0878616419344507 x[2,5]
   + 0.0933062880324544 x[2,6] + 0.0386996904024768 x[2,7]
   + 0.0891249421728764 x[2,8] + 0.1206718622113092 x[2,9]
   + 0.0311376819330273 x[2,10] + 0.0306394790220989 x[2,11]
   + 0.0822568591865058 x[2,12] + 0.0222412013807338 x[2,13]
   + 0.0544998398633501 x[2,14] - 0.00907441016333938 x[3,1]
   - 0.0943738656987296 x[3,2] - 0.0815985196256361 x[3,3]
   - 0.1467207572684246 x[3,4] - 0.0878616419344507 x[3,5]
   - 0.0933062880324544 x[3,6] - 0.0386996904024768 x[3,7]
   - 0.0891249421728764 x[3,8] - 0.1206718622113092 x[3,9]
   - 0.0311376819330273 x[3,10] - 0.0306394790220989 x[3,11]
   - 0.0822568591865058 x[3,12] - 0.0222412013807338 x[3,13]
   - 0.0544998398633501 x[3,14] >= 0
 findWorstP[2,4]: z + 0.017792961104587 cashProportion[2]
   - 0.017792961104587 cashProportion[4] + 0.00907441016333938 x[2,1]
   + 0.0943738656987296 x[2,2] + 0.0815985196256361 x[2,3]
   + 0.1467207572684246 x[2,4] + 0.0878616419344507 x[2,5]
   + 0.0933062880324544 x[2,6] + 0.0386996904024768 x[2,7]
   + 0.0891249421728764 x[2,8] + 0.1206718622113092 x[2,9]
   + 0.0311376819330273 x[2,10] + 0.0306394790220989 x[2,11]
   + 0.0822568591865058 x[2,12] + 0.0222412013807338 x[2,13]
   + 0.0544998398633501 x[2,14] - 0.00907441016333938 x[4,1]
   - 0.0943738656987296 x[4,2] - 0.0815985196256361 x[4,3]
   - 0.1467207572684246 x[4,4] - 0.0878616419344507 x[4,5]
   - 0.0933062880324544 x[4,6] - 0.0386996904024768 x[4,7]
   - 0.0891249421728764 x[4,8] - 0.1206718622113092 x[4,9]
   - 0.0311376819330273 x[4,10] - 0.0306394790220989 x[4,11]
   - 0.0822568591865058 x[4,12] - 0.0222412013807338 x[4,13]
   - 0.0544998398633501 x[4,14] >= 0
 findWorstP[3,1]: z - 0.0115037732376219 cashProportion[1]
   + 0.0115037732376219 cashProportion[3] - 0.050329007914596 x[1,1]
   - 0.0715764770844837 x[1,2] - 0.0972759064973311 x[1,3]
   - 0.0953547763666483 x[1,4] - 0.0536305908337935 x[1,5]
   - 0.0337405669059452 x[1,6] - 0.1033153874470827 x[1,7]
   - 0.0914089821461439 x[1,8] - 0.0426789987115774 x[1,9]
   - 0.0112736977728695 x[1,10] - 0.1149111908706056 x[1,11]
   - 0.1104132155346954 x[1,12] - 0.035753727222529 x[1,13]
   - 0.076833701454077 x[1,14] + 0.050329007914596 x[3,1]
   + 0.0715764770844837 x[3,2] + 0.0972759064973311 x[3,3]
   + 0.0953547763666483 x[3,4] + 0.0536305908337935 x[3,5]
   + 0.0337405669059452 x[3,6] + 0.1033153874470827 x[3,7]
   + 0.0914089821461439 x[3,8] + 0.0426789987115774 x[3,9]
   + 0.0112736977728695 x[3,10] + 0.1149111908706056 x[3,11]
   + 0.1104132155346954 x[3,12] + 0.035753727222529 x[3,13]
   + 0.076833701454077 x[3,14] >= 0
 findWorstP[3,2]: z - 0.0115037732376219 cashProportion[2]
   + 0.0115037732376219 cashProportion[3] - 0.050329007914596 x[2,1]
   - 0.0715764770844837 x[2,2] - 0.0972759064973311 x[2,3]
   - 0.0953547763666483 x[2,4] - 0.0536305908337935 x[2,5]
   - 0.0337405669059452 x[2,6] - 0.1033153874470827 x[2,7]
   - 0.0914089821461439 x[2,8] - 0.0426789987115774 x[2,9]
   - 0.0112736977728695 x[2,10] - 0.1149111908706056 x[2,11]
   - 0.1104132155346954 x[2,12] - 0.035753727222529 x[2,13]
   - 0.076833701454077 x[2,14] + 0.050329007914596 x[3,1]
   + 0.0715764770844837 x[3,2] + 0.0972759064973311 x[3,3]
   + 0.0953547763666483 x[3,4] + 0.0536305908337935 x[3,5]
   + 0.0337405669059452 x[3,6] + 0.1033153874470827 x[3,7]
   + 0.0914089821461439 x[3,8] + 0.0426789987115774 x[3,9]
   + 0.0112736977728695 x[3,10] + 0.1149111908706056 x[3,11]
   + 0.1104132155346954 x[3,12] + 0.035753727222529 x[3,13]
   + 0.076833701454077 x[3,14] >= 0
 findWorstP[3,4]: z + 0.0115037732376219 cashProportion[3]
   - 0.0115037732376219 cashProportion[4] + 0.050329007914596 x[3,1]
   + 0.0715764770844837 x[3,2] + 0.0972759064973311 x[3,3]
   + 0.0953547763666483 x[3,4] + 0.0536305908337935 x[3,5]
   + 0.0337405669059452 x[3,6] + 0.1033153874470827 x[3,7]
   + 0.0914089821461439 x[3,8] + 0.0426789987115774 x[3,9]
   + 0.0112736977728695 x[3,10] + 0.1149111908706056 x[3,11]
   + 0.1104132155346954 x[3,12] + 0.035753727222529 x[3,13]
   + 0.076833701454077 x[3,14] - 0.050329007914596 x[4,1]
   - 0.0715764770844837 x[4,2] - 0.0972759064973311 x[4,3]
   - 0.0953547763666483 x[4,4] - 0.0536305908337935 x[4,5]
   - 0.0337405669059452 x[4,6] - 0.1033153874470827 x[4,7]
   - 0.0914089821461439 x[4,8] - 0.0426789987115774 x[4,9]
   - 0.0112736977728695 x[4,10] - 0.1149111908706056 x[4,11]
   - 0.1104132155346954 x[4,12] - 0.035753727222529 x[4,13]
   - 0.076833701454077 x[4,14] >= 0
 findWorstP[4,1]: z - 0.0154447310300091 cashProportion[1]
   + 0.0154447310300091 cashProportion[4] - 0.0376388095201322 x[1,1]
   - 0.1141211175807373 x[1,2] - 0.025452916737455 x[1,3]
   - 0.1319906713824579 x[1,4] - 0.0784283441703863 x[1,5]
   - 0.0301790044326378 x[1,6] - 0.0657327752637188 x[1,7]
   - 0.0777178865430058 x[1,8] - 0.0957109981929665 x[1,9]
   - 0.0942128592830556 x[1,10] - 0.00806214959766476 x[1,11]
   - 0.0717562203654223 x[1,12] - 0.0471527638346178 x[1,13]
   - 0.1063987520657328 x[1,14] + 0.0376388095201322 x[4,1]
   + 0.1141211175807373 x[4,2] + 0.025452916737455 x[4,3]
   + 0.1319906713824579 x[4,4] + 0.0784283441703863 x[4,5]
   + 0.0301790044326378 x[4,6] + 0.0657327752637188 x[4,7]
   + 0.0777178865430058 x[4,8] + 0.0957109981929665 x[4,9]
   + 0.0942128592830556 x[4,10] + 0.00806214959766476 x[4,11]
   + 0.0717562203654223 x[4,12] + 0.0471527638346178 x[4,13]
   + 0.1063987520657328 x[4,14] >= 0
 findWorstP[4,2]: z - 0.0154447310300091 cashProportion[2]
   + 0.0154447310300091 cashProportion[4] - 0.0376388095201322 x[2,1]
   - 0.1141211175807373 x[2,2] - 0.025452916737455 x[2,3]
   - 0.1319906713824579 x[2,4] - 0.0784283441703863 x[2,5]
   - 0.0301790044326378 x[2,6] - 0.0657327752637188 x[2,7]
   - 0.0777178865430058 x[2,8] - 0.0957109981929665 x[2,9]
   - 0.0942128592830556 x[2,10] - 0.00806214959766476 x[2,11]
   - 0.0717562203654223 x[2,12] - 0.0471527638346178 x[2,13]
   - 0.1063987520657328 x[2,14] + 0.0376388095201322 x[4,1]
   + 0.1141211175807373 x[4,2] + 0.025452916737455 x[4,3]
   + 0.1319906713824579 x[4,4] + 0.0784283441703863 x[4,5]
   + 0.0301790044326378 x[4,6] + 0.0657327752637188 x[4,7]
   + 0.0777178865430058 x[4,8] + 0.0957109981929665 x[4,9]
   + 0.0942128592830556 x[4,10] + 0.00806214959766476 x[4,11]
   + 0.0717562203654223 x[4,12] + 0.0471527638346178 x[4,13]
   + 0.1063987520657328 x[4,14] >= 0
 findWorstP[4,3]: z - 0.0154447310300091 cashProportion[3]
   + 0.0154447310300091 cashProportion[4] - 0.0376388095201322 x[3,1]
   - 0.1141211175807373 x[3,2] - 0.025452916737455 x[3,3]
   - 0.1319906713824579 x[3,4] - 0.0784283441703863 x[3,5]
   - 0.0301790044326378 x[3,6] - 0.0657327752637188 x[3,7]
   - 0.0777178865430058 x[3,8] - 0.0957109981929665 x[3,9]
   - 0.0942128592830556 x[3,10] - 0.00806214959766476 x[3,11]
   - 0.0717562203654223 x[3,12] - 0.0471527638346178 x[3,13]
   - 0.1063987520657328 x[3,14] + 0.0376388095201322 x[4,1]
   + 0.1141211175807373 x[4,2] + 0.025452916737455 x[4,3]
   + 0.1319906713824579 x[4,4] + 0.0784283441703863 x[4,5]
   + 0.0301790044326378 x[4,6] + 0.0657327752637188 x[4,7]
   + 0.0777178865430058 x[4,8] + 0.0957109981929665 x[4,9]
   + 0.0942128592830556 x[4,10] + 0.00806214959766476 x[4,11]
   + 0.0717562203654223 x[4,12] + 0.0471527638346178 x[4,13]
   + 0.1063987520657328 x[4,14] >= 0
Bounds
 z <= 1
 -infinity <= cashProportion[1] <= 1
 -infinity <= cashProportion[2] <= 1
 -infinity <= cashProportion[3] <= 1
 -infinity <= cashProportion[4] <= 1
Binaries
 x[1,1] x[1,2] x[1,3] x[1,4] x[1,5] x[1,6] x[1,7] x[1,8] x[1,9] x[1,10]
 x[1,11] x[1,12] x[1,13] x[1,14] x[2,1] x[2,2] x[2,3] x[2,4] x[2,5] x[2,6]
 x[2,7] x[2,8] x[2,9] x[2,10] x[2,11] x[2,12] x[2,13] x[2,14] x[3,1] x[3,2]
 x[3,3] x[3,4] x[3,5] x[3,6] x[3,7] x[3,8] x[3,9] x[3,10] x[3,11] x[3,12]
 x[3,13] x[3,14] x[4,1] x[4,2] x[4,3] x[4,4] x[4,5] x[4,6] x[4,7] x[4,8]
 x[4,9] x[4,10] x[4,11] x[4,12] x[4,13] x[4,14]
End
