data/mps_files/q3/74_1.mps
NAME foo
ROWS
 N  OBJ
 E  allocateEach[1]
 E  allocateEach[2]
 E  allocateEach[3]
 E  allocateEach[4]
 E  allocateEach[5]
 E  allocateEach[6]
 E  allocateEach[7]
 E  allocateEach[8]
 E  allocateEach[9]
 E  allocateEach[10]
 E  allocateEach[11]
 E  allocateEach[12]
 E  allocateEach[13]
 E  allocateEach[14]
 E  allocateAllCash
 G  findWorstP[1,2]
 G  findWorstP[1,3]
 G  findWorstP[1,4]
 G  findWorstP[2,1]
 G  findWorstP[2,3]
 G  findWorstP[2,4]
 G  findWorstP[3,1]
 G  findWorstP[3,2]
 G  findWorstP[3,4]
 G  findWorstP[4,1]
 G  findWorstP[4,2]
 G  findWorstP[4,3]
COLUMNS
    z         OBJ       1
    z         findWorstP[1,2]  1
    z         findWorstP[1,3]  1
    z         findWorstP[1,4]  1
    z         findWorstP[2,1]  1
    z         findWorstP[2,3]  1
    z         findWorstP[2,4]  1
    z         findWorstP[3,1]  1
    z         findWorstP[3,2]  1
    z         findWorstP[3,4]  1
    z         findWorstP[4,1]  1
    z         findWorstP[4,2]  1
    z         findWorstP[4,3]  1
    cashProportion[1]  allocateAllCash  1
    cashProportion[1]  findWorstP[1,2]  1.3348817962169452e-02
    cashProportion[1]  findWorstP[1,3]  1.3348817962169452e-02
    cashProportion[1]  findWorstP[1,4]  1.3348817962169452e-02
    cashProportion[1]  findWorstP[2,1]  -1.7792961104587026e-02
    cashProportion[1]  findWorstP[3,1]  -1.1503773237621943e-02
    cashProportion[1]  findWorstP[4,1]  -1.5444731030009113e-02
    cashProportion[2]  allocateAllCash  1
    cashProportion[2]  findWorstP[1,2]  -1.3348817962169452e-02
    cashProportion[2]  findWorstP[2,1]  1.7792961104587026e-02
    cashProportion[2]  findWorstP[2,3]  1.7792961104587026e-02
    cashProportion[2]  findWorstP[2,4]  1.7792961104587026e-02
    cashProportion[2]  findWorstP[3,2]  -1.1503773237621943e-02
    cashProportion[2]  findWorstP[4,2]  -1.5444731030009113e-02
    cashProportion[3]  allocateAllCash  1
    cashProportion[3]  findWorstP[1,3]  -1.3348817962169452e-02
    cashProportion[3]  findWorstP[2,3]  -1.7792961104587026e-02
    cashProportion[3]  findWorstP[3,1]  1.1503773237621943e-02
    cashProportion[3]  findWorstP[3,2]  1.1503773237621943e-02
    cashProportion[3]  findWorstP[3,4]  1.1503773237621943e-02
    cashProportion[3]  findWorstP[4,3]  -1.5444731030009113e-02
    cashProportion[4]  allocateAllCash  1
    cashProportion[4]  findWorstP[1,4]  -1.3348817962169452e-02
    cashProportion[4]  findWorstP[2,4]  -1.7792961104587026e-02
    cashProportion[4]  findWorstP[3,4]  -1.1503773237621943e-02
    cashProportion[4]  findWorstP[4,1]  1.5444731030009113e-02
    cashProportion[4]  findWorstP[4,2]  1.5444731030009113e-02
    cashProportion[4]  findWorstP[4,3]  1.5444731030009113e-02
    MARKER    'MARKER'                 'INTORG'
    x[1,1]    allocateEach[1]  1
    x[1,1]    findWorstP[1,2]  1.2558567938809020e-01
    x[1,1]    findWorstP[1,3]  1.2558567938809020e-01
    x[1,1]    findWorstP[1,4]  1.2558567938809020e-01
    x[1,1]    findWorstP[2,1]  -9.0744101633393835e-03
    x[1,1]    findWorstP[3,1]  -0.050329007914596
    x[1,1]    findWorstP[4,1]  -0.0376388095201322
    x[1,2]    allocateEach[2]  1
    x[1,2]    findWorstP[1,2]  1.5591419379813919e-02
    x[1,2]    findWorstP[1,3]  1.5591419379813919e-02
    x[1,2]    findWorstP[1,4]  1.5591419379813919e-02
    x[1,2]    findWorstP[2,1]  -9.4373865698729589e-02
    x[1,2]    findWorstP[3,1]  -7.1576477084483725e-02
    x[1,2]    findWorstP[4,1]  -1.1412111758073733e-01
    x[1,3]    allocateEach[3]  1
    x[1,3]    findWorstP[1,2]  2.2626246445877223e-02
    x[1,3]    findWorstP[1,3]  2.2626246445877223e-02
    x[1,3]    findWorstP[1,4]  2.2626246445877223e-02
    x[1,3]    findWorstP[2,1]  -0.0815985196256361
    x[1,3]    findWorstP[3,1]  -9.7275906497331144e-02
    x[1,3]    findWorstP[4,1]  -2.5452916737455016e-02
    x[1,4]    allocateEach[4]  1
    x[1,4]    findWorstP[1,2]  0.0516065302417471
    x[1,4]    findWorstP[1,3]  0.0516065302417471
    x[1,4]    findWorstP[1,4]  0.0516065302417471
    x[1,4]    findWorstP[2,1]  -1.4672075726842462e-01
    x[1,4]    findWorstP[3,1]  -9.5354776366648270e-02
    x[1,4]    findWorstP[4,1]  -1.3199067138245787e-01
    x[1,5]    allocateEach[5]  1
    x[1,5]    findWorstP[1,2]  4.8175884025469552e-02
    x[1,5]    findWorstP[1,3]  4.8175884025469552e-02
    x[1,5]    findWorstP[1,4]  4.8175884025469552e-02
    x[1,5]    findWorstP[2,1]  -8.7861641934450743e-02
    x[1,5]    findWorstP[3,1]  -5.3630590833793491e-02
    x[1,5]    findWorstP[4,1]  -7.8428344170386272e-02
    x[1,6]    allocateEach[6]  1
    x[1,6]    findWorstP[1,2]  1.0203836450282328e-01
    x[1,6]    findWorstP[1,3]  1.0203836450282328e-01
    x[1,6]    findWorstP[1,4]  1.0203836450282328e-01
    x[1,6]    findWorstP[2,1]  -9.3306288032454360e-02
    x[1,6]    findWorstP[3,1]  -3.3740566905945159e-02
    x[1,6]    findWorstP[4,1]  -3.0179004432637803e-02
    x[1,7]    allocateEach[7]  1
    x[1,7]    findWorstP[1,2]  0.0784376543457077
    x[1,7]    findWorstP[1,3]  0.0784376543457077
    x[1,7]    findWorstP[1,4]  0.0784376543457077
    x[1,7]    findWorstP[2,1]  -3.8699690402476783e-02
    x[1,7]    findWorstP[3,1]  -1.0331538744708266e-01
    x[1,7]    findWorstP[4,1]  -6.5732775263718776e-02
    x[1,8]    allocateEach[8]  1
    x[1,8]    findWorstP[1,2]  9.2587401385607310e-02
    x[1,8]    findWorstP[1,3]  9.2587401385607310e-02
    x[1,8]    findWorstP[1,4]  9.2587401385607310e-02
    x[1,8]    findWorstP[2,1]  -8.9124942172876420e-02
    x[1,8]    findWorstP[3,1]  -9.1408982146143944e-02
    x[1,8]    findWorstP[4,1]  -7.7717886543005849e-02
    x[1,9]    allocateEach[9]  1
    x[1,9]    findWorstP[1,2]  1.2167447572517455e-01
    x[1,9]    findWorstP[1,3]  1.2167447572517455e-01
    x[1,9]    findWorstP[1,4]  1.2167447572517455e-01
    x[1,9]    findWorstP[2,1]  -1.2067186221130922e-01
    x[1,9]    findWorstP[3,1]  -4.2678998711577404e-02
    x[1,9]    findWorstP[4,1]  -9.5710998192966468e-02
    x[1,10]   allocateEach[10]  1
    x[1,10]   findWorstP[1,2]  1.2939009250730849e-01
    x[1,10]   findWorstP[1,3]  1.2939009250730849e-01
    x[1,10]   findWorstP[1,4]  1.2939009250730849e-01
    x[1,10]   findWorstP[2,1]  -3.1137681933027295e-02
    x[1,10]   findWorstP[3,1]  -1.1273697772869504e-02
    x[1,10]   findWorstP[4,1]  -9.4212859283055589e-02
    x[1,11]   allocateEach[11]  1
    x[1,11]   findWorstP[1,2]  3.1690093842190278e-02
    x[1,11]   findWorstP[1,3]  3.1690093842190278e-02
    x[1,11]   findWorstP[1,4]  3.1690093842190278e-02
    x[1,11]   findWorstP[2,1]  -3.0639479022098858e-02
    x[1,11]   findWorstP[3,1]  -1.1491119087060558e-01
    x[1,11]   findWorstP[4,1]  -8.0621495976647573e-03
    x[1,12]   allocateEach[12]  1
    x[1,12]   findWorstP[1,2]  3.3652370082629189e-02
    x[1,12]   findWorstP[1,3]  3.3652370082629189e-02
    x[1,12]   findWorstP[1,4]  3.3652370082629189e-02
    x[1,12]   findWorstP[2,1]  -8.2256859186505826e-02
    x[1,12]   findWorstP[3,1]  -1.1041321553469539e-01
    x[1,12]   findWorstP[4,1]  -7.1756220365422341e-02
    x[1,13]   allocateEach[13]  1
    x[1,13]   findWorstP[1,2]  1.0358682738643495e-01
    x[1,13]   findWorstP[1,3]  1.0358682738643495e-01
    x[1,13]   findWorstP[1,4]  1.0358682738643495e-01
    x[1,13]   findWorstP[2,1]  -2.2241201380733783e-02
    x[1,13]   findWorstP[3,1]  -0.035753727222529
    x[1,13]   findWorstP[4,1]  -4.7152763834617820e-02
    x[1,14]   allocateEach[14]  1
    x[1,14]   findWorstP[1,2]  3.0008142778956928e-02
    x[1,14]   findWorstP[1,3]  3.0008142778956928e-02
    x[1,14]   findWorstP[1,4]  3.0008142778956928e-02
    x[1,14]   findWorstP[2,1]  -5.4499839863350066e-02
    x[1,14]   findWorstP[3,1]  -7.6833701454076961e-02
    x[1,14]   findWorstP[4,1]  -1.0639875206573277e-01
    x[2,1]    allocateEach[1]  1
    x[2,1]    findWorstP[1,2]  -1.2558567938809020e-01
    x[2,1]    findWorstP[2,1]  9.0744101633393835e-03
    x[2,1]    findWorstP[2,3]  9.0744101633393835e-03
    x[2,1]    findWorstP[2,4]  9.0744101633393835e-03
    x[2,1]    findWorstP[3,2]  -0.050329007914596
    x[2,1]    findWorstP[4,2]  -0.0376388095201322
    x[2,2]    allocateEach[2]  1
    x[2,2]    findWorstP[1,2]  -1.5591419379813919e-02
    x[2,2]    findWorstP[2,1]  9.4373865698729589e-02
    x[2,2]    findWorstP[2,3]  9.4373865698729589e-02
    x[2,2]    findWorstP[2,4]  9.4373865698729589e-02
    x[2,2]    findWorstP[3,2]  -7.1576477084483725e-02
    x[2,2]    findWorstP[4,2]  -1.1412111758073733e-01
    x[2,3]    allocateEach[3]  1
    x[2,3]    findWorstP[1,2]  -2.2626246445877223e-02
    x[2,3]    findWorstP[2,1]  0.0815985196256361
    x[2,3]    findWorstP[2,3]  0.0815985196256361
    x[2,3]    findWorstP[2,4]  0.0815985196256361
    x[2,3]    findWorstP[3,2]  -9.7275906497331144e-02
    x[2,3]    findWorstP[4,2]  -2.5452916737455016e-02
    x[2,4]    allocateEach[4]  1
    x[2,4]    findWorstP[1,2]  -0.0516065302417471
    x[2,4]    findWorstP[2,1]  1.4672075726842462e-01
    x[2,4]    findWorstP[2,3]  1.4672075726842462e-01
    x[2,4]    findWorstP[2,4]  1.4672075726842462e-01
    x[2,4]    findWorstP[3,2]  -9.5354776366648270e-02
    x[2,4]    findWorstP[4,2]  -1.3199067138245787e-01
    x[2,5]    allocateEach[5]  1
    x[2,5]    findWorstP[1,2]  -4.8175884025469552e-02
    x[2,5]    findWorstP[2,1]  8.7861641934450743e-02
    x[2,5]    findWorstP[2,3]  8.7861641934450743e-02
    x[2,5]    findWorstP[2,4]  8.7861641934450743e-02
    x[2,5]    findWorstP[3,2]  -5.3630590833793491e-02
    x[2,5]    findWorstP[4,2]  -7.8428344170386272e-02
    x[2,6]    allocateEach[6]  1
    x[2,6]    findWorstP[1,2]  -1.0203836450282328e-01
    x[2,6]    findWorstP[2,1]  9.3306288032454360e-02
    x[2,6]    findWorstP[2,3]  9.3306288032454360e-02
    x[2,6]    findWorstP[2,4]  9.3306288032454360e-02
    x[2,6]    findWorstP[3,2]  -3.3740566905945159e-02
    x[2,6]    findWorstP[4,2]  -3.0179004432637803e-02
    x[2,7]    allocateEach[7]  1
    x[2,7]    findWorstP[1,2]  -0.0784376543457077
    x[2,7]    findWorstP[2,1]  3.8699690402476783e-02
    x[2,7]    findWorstP[2,3]  3.8699690402476783e-02
    x[2,7]    findWorstP[2,4]  3.8699690402476783e-02
    x[2,7]    findWorstP[3,2]  -1.0331538744708266e-01
    x[2,7]    findWorstP[4,2]  -6.5732775263718776e-02
    x[2,8]    allocateEach[8]  1
    x[2,8]    findWorstP[1,2]  -9.2587401385607310e-02
    x[2,8]    findWorstP[2,1]  8.9124942172876420e-02
    x[2,8]    findWorstP[2,3]  8.9124942172876420e-02
    x[2,8]    findWorstP[2,4]  8.9124942172876420e-02
    x[2,8]    findWorstP[3,2]  -9.1408982146143944e-02
    x[2,8]    findWorstP[4,2]  -7.7717886543005849e-02
    x[2,9]    allocateEach[9]  1
    x[2,9]    findWorstP[1,2]  -1.2167447572517455e-01
    x[2,9]    findWorstP[2,1]  1.2067186221130922e-01
    x[2,9]    findWorstP[2,3]  1.2067186221130922e-01
    x[2,9]    findWorstP[2,4]  1.2067186221130922e-01
    x[2,9]    findWorstP[3,2]  -4.2678998711577404e-02
    x[2,9]    findWorstP[4,2]  -9.5710998192966468e-02
    x[2,10]   allocateEach[10]  1
    x[2,10]   findWorstP[1,2]  -1.2939009250730849e-01
    x[2,10]   findWorstP[2,1]  3.1137681933027295e-02
    x[2,10]   findWorstP[2,3]  3.1137681933027295e-02
    x[2,10]   findWorstP[2,4]  3.1137681933027295e-02
    x[2,10]   findWorstP[3,2]  -1.1273697772869504e-02
    x[2,10]   findWorstP[4,2]  -9.4212859283055589e-02
    x[2,11]   allocateEach[11]  1
    x[2,11]   findWorstP[1,2]  -3.1690093842190278e-02
    x[2,11]   findWorstP[2,1]  3.0639479022098858e-02
    x[2,11]   findWorstP[2,3]  3.0639479022098858e-02
    x[2,11]   findWorstP[2,4]  3.0639479022098858e-02
    x[2,11]   findWorstP[3,2]  -1.1491119087060558e-01
    x[2,11]   findWorstP[4,2]  -8.0621495976647573e-03
    x[2,12]   allocateEach[12]  1
    x[2,12]   findWorstP[1,2]  -3.3652370082629189e-02
    x[2,12]   findWorstP[2,1]  8.2256859186505826e-02
    x[2,12]   findWorstP[2,3]  8.2256859186505826e-02
    x[2,12]   findWorstP[2,4]  8.2256859186505826e-02
    x[2,12]   findWorstP[3,2]  -1.1041321553469539e-01
    x[2,12]   findWorstP[4,2]  -7.1756220365422341e-02
    x[2,13]   allocateEach[13]  1
    x[2,13]   findWorstP[1,2]  -1.0358682738643495e-01
    x[2,13]   findWorstP[2,1]  2.2241201380733783e-02
    x[2,13]   findWorstP[2,3]  2.2241201380733783e-02
    x[2,13]   findWorstP[2,4]  2.2241201380733783e-02
    x[2,13]   findWorstP[3,2]  -0.035753727222529
    x[2,13]   findWorstP[4,2]  -4.7152763834617820e-02
    x[2,14]   allocateEach[14]  1
    x[2,14]   findWorstP[1,2]  -3.0008142778956928e-02
    x[2,14]   findWorstP[2,1]  5.4499839863350066e-02
    x[2,14]   findWorstP[2,3]  5.4499839863350066e-02
    x[2,14]   findWorstP[2,4]  5.4499839863350066e-02
    x[2,14]   findWorstP[3,2]  -7.6833701454076961e-02
    x[2,14]   findWorstP[4,2]  -1.0639875206573277e-01
    x[3,1]    allocateEach[1]  1
    x[3,1]    findWorstP[1,3]  -1.2558567938809020e-01
    x[3,1]    findWorstP[2,3]  -9.0744101633393835e-03
    x[3,1]    findWorstP[3,1]  0.050329007914596
    x[3,1]    findWorstP[3,2]  0.050329007914596
    x[3,1]    findWorstP[3,4]  0.050329007914596
    x[3,1]    findWorstP[4,3]  -0.0376388095201322
    x[3,2]    allocateEach[2]  1
    x[3,2]    findWorstP[1,3]  -1.5591419379813919e-02
    x[3,2]    findWorstP[2,3]  -9.4373865698729589e-02
    x[3,2]    findWorstP[3,1]  7.1576477084483725e-02
    x[3,2]    findWorstP[3,2]  7.1576477084483725e-02
    x[3,2]    findWorstP[3,4]  7.1576477084483725e-02
    x[3,2]    findWorstP[4,3]  -1.1412111758073733e-01
    x[3,3]    allocateEach[3]  1
    x[3,3]    findWorstP[1,3]  -2.2626246445877223e-02
    x[3,3]    findWorstP[2,3]  -0.0815985196256361
    x[3,3]    findWorstP[3,1]  9.7275906497331144e-02
    x[3,3]    findWorstP[3,2]  9.7275906497331144e-02
    x[3,3]    findWorstP[3,4]  9.7275906497331144e-02
    x[3,3]    findWorstP[4,3]  -2.5452916737455016e-02
    x[3,4]    allocateEach[4]  1
    x[3,4]    findWorstP[1,3]  -0.0516065302417471
    x[3,4]    findWorstP[2,3]  -1.4672075726842462e-01
    x[3,4]    findWorstP[3,1]  9.5354776366648270e-02
    x[3,4]    findWorstP[3,2]  9.5354776366648270e-02
    x[3,4]    findWorstP[3,4]  9.5354776366648270e-02
    x[3,4]    findWorstP[4,3]  -1.3199067138245787e-01
    x[3,5]    allocateEach[5]  1
    x[3,5]    findWorstP[1,3]  -4.8175884025469552e-02
    x[3,5]    findWorstP[2,3]  -8.7861641934450743e-02
    x[3,5]    findWorstP[3,1]  5.3630590833793491e-02
    x[3,5]    findWorstP[3,2]  5.3630590833793491e-02
    x[3,5]    findWorstP[3,4]  5.3630590833793491e-02
    x[3,5]    findWorstP[4,3]  -7.8428344170386272e-02
    x[3,6]    allocateEach[6]  1
    x[3,6]    findWorstP[1,3]  -1.0203836450282328e-01
    x[3,6]    findWorstP[2,3]  -9.3306288032454360e-02
    x[3,6]    findWorstP[3,1]  3.3740566905945159e-02
    x[3,6]    findWorstP[3,2]  3.3740566905945159e-02
    x[3,6]    findWorstP[3,4]  3.3740566905945159e-02
    x[3,6]    findWorstP[4,3]  -3.0179004432637803e-02
    x[3,7]    allocateEach[7]  1
    x[3,7]    findWorstP[1,3]  -0.0784376543457077
    x[3,7]    findWorstP[2,3]  -3.8699690402476783e-02
    x[3,7]    findWorstP[3,1]  1.0331538744708266e-01
    x[3,7]    findWorstP[3,2]  1.0331538744708266e-01
    x[3,7]    findWorstP[3,4]  1.0331538744708266e-01
    x[3,7]    findWorstP[4,3]  -6.5732775263718776e-02
    x[3,8]    allocateEach[8]  1
    x[3,8]    findWorstP[1,3]  -9.2587401385607310e-02
    x[3,8]    findWorstP[2,3]  -8.9124942172876420e-02
    x[3,8]    findWorstP[3,1]  9.1408982146143944e-02
    x[3,8]    findWorstP[3,2]  9.1408982146143944e-02
    x[3,8]    findWorstP[3,4]  9.1408982146143944e-02
    x[3,8]    findWorstP[4,3]  -7.7717886543005849e-02
    x[3,9]    allocateEach[9]  1
    x[3,9]    findWorstP[1,3]  -1.2167447572517455e-01
    x[3,9]    findWorstP[2,3]  -1.2067186221130922e-01
    x[3,9]    findWorstP[3,1]  4.2678998711577404e-02
    x[3,9]    findWorstP[3,2]  4.2678998711577404e-02
    x[3,9]    findWorstP[3,4]  4.2678998711577404e-02
    x[3,9]    findWorstP[4,3]  -9.5710998192966468e-02
    x[3,10]   allocateEach[10]  1
    x[3,10]   findWorstP[1,3]  -1.2939009250730849e-01
    x[3,10]   findWorstP[2,3]  -3.1137681933027295e-02
    x[3,10]   findWorstP[3,1]  1.1273697772869504e-02
    x[3,10]   findWorstP[3,2]  1.1273697772869504e-02
    x[3,10]   findWorstP[3,4]  1.1273697772869504e-02
    x[3,10]   findWorstP[4,3]  -9.4212859283055589e-02
    x[3,11]   allocateEach[11]  1
    x[3,11]   findWorstP[1,3]  -3.1690093842190278e-02
    x[3,11]   findWorstP[2,3]  -3.0639479022098858e-02
    x[3,11]   findWorstP[3,1]  1.1491119087060558e-01
    x[3,11]   findWorstP[3,2]  1.1491119087060558e-01
    x[3,11]   findWorstP[3,4]  1.1491119087060558e-01
    x[3,11]   findWorstP[4,3]  -8.0621495976647573e-03
    x[3,12]   allocateEach[12]  1
    x[3,12]   findWorstP[1,3]  -3.3652370082629189e-02
    x[3,12]   findWorstP[2,3]  -8.2256859186505826e-02
    x[3,12]   findWorstP[3,1]  1.1041321553469539e-01
    x[3,12]   findWorstP[3,2]  1.1041321553469539e-01
    x[3,12]   findWorstP[3,4]  1.1041321553469539e-01
    x[3,12]   findWorstP[4,3]  -7.1756220365422341e-02
    x[3,13]   allocateEach[13]  1
    x[3,13]   findWorstP[1,3]  -1.0358682738643495e-01
    x[3,13]   findWorstP[2,3]  -2.2241201380733783e-02
    x[3,13]   findWorstP[3,1]  0.035753727222529
    x[3,13]   findWorstP[3,2]  0.035753727222529
    x[3,13]   findWorstP[3,4]  0.035753727222529
    x[3,13]   findWorstP[4,3]  -4.7152763834617820e-02
    x[3,14]   allocateEach[14]  1
    x[3,14]   findWorstP[1,3]  -3.0008142778956928e-02
    x[3,14]   findWorstP[2,3]  -5.4499839863350066e-02
    x[3,14]   findWorstP[3,1]  7.6833701454076961e-02
    x[3,14]   findWorstP[3,2]  7.6833701454076961e-02
    x[3,14]   findWorstP[3,4]  7.6833701454076961e-02
    x[3,14]   findWorstP[4,3]  -1.0639875206573277e-01
    x[4,1]    allocateEach[1]  1
    x[4,1]    findWorstP[1,4]  -1.2558567938809020e-01
    x[4,1]    findWorstP[2,4]  -9.0744101633393835e-03
    x[4,1]    findWorstP[3,4]  -0.050329007914596
    x[4,1]    findWorstP[4,1]  0.0376388095201322
    x[4,1]    findWorstP[4,2]  0.0376388095201322
    x[4,1]    findWorstP[4,3]  0.0376388095201322
    x[4,2]    allocateEach[2]  1
    x[4,2]    findWorstP[1,4]  -1.5591419379813919e-02
    x[4,2]    findWorstP[2,4]  -9.4373865698729589e-02
    x[4,2]    findWorstP[3,4]  -7.1576477084483725e-02
    x[4,2]    findWorstP[4,1]  1.1412111758073733e-01
    x[4,2]    findWorstP[4,2]  1.1412111758073733e-01
    x[4,2]    findWorstP[4,3]  1.1412111758073733e-01
    x[4,3]    allocateEach[3]  1
    x[4,3]    findWorstP[1,4]  -2.2626246445877223e-02
    x[4,3]    findWorstP[2,4]  -0.0815985196256361
    x[4,3]    findWorstP[3,4]  -9.7275906497331144e-02
    x[4,3]    findWorstP[4,1]  2.5452916737455016e-02
    x[4,3]    findWorstP[4,2]  2.5452916737455016e-02
    x[4,3]    findWorstP[4,3]  2.5452916737455016e-02
    x[4,4]    allocateEach[4]  1
    x[4,4]    findWorstP[1,4]  -0.0516065302417471
    x[4,4]    findWorstP[2,4]  -1.4672075726842462e-01
    x[4,4]    findWorstP[3,4]  -9.5354776366648270e-02
    x[4,4]    findWorstP[4,1]  1.3199067138245787e-01
    x[4,4]    findWorstP[4,2]  1.3199067138245787e-01
    x[4,4]    findWorstP[4,3]  1.3199067138245787e-01
    x[4,5]    allocateEach[5]  1
    x[4,5]    findWorstP[1,4]  -4.8175884025469552e-02
    x[4,5]    findWorstP[2,4]  -8.7861641934450743e-02
    x[4,5]    findWorstP[3,4]  -5.3630590833793491e-02
    x[4,5]    findWorstP[4,1]  7.8428344170386272e-02
    x[4,5]    findWorstP[4,2]  7.8428344170386272e-02
    x[4,5]    findWorstP[4,3]  7.8428344170386272e-02
    x[4,6]    allocateEach[6]  1
    x[4,6]    findWorstP[1,4]  -1.0203836450282328e-01
    x[4,6]    findWorstP[2,4]  -9.3306288032454360e-02
    x[4,6]    findWorstP[3,4]  -3.3740566905945159e-02
    x[4,6]    findWorstP[4,1]  3.0179004432637803e-02
    x[4,6]    findWorstP[4,2]  3.0179004432637803e-02
    x[4,6]    findWorstP[4,3]  3.0179004432637803e-02
    x[4,7]    allocateEach[7]  1
    x[4,7]    findWorstP[1,4]  -0.0784376543457077
    x[4,7]    findWorstP[2,4]  -3.8699690402476783e-02
    x[4,7]    findWorstP[3,4]  -1.0331538744708266e-01
    x[4,7]    findWorstP[4,1]  6.5732775263718776e-02
    x[4,7]    findWorstP[4,2]  6.5732775263718776e-02
    x[4,7]    findWorstP[4,3]  6.5732775263718776e-02
    x[4,8]    allocateEach[8]  1
    x[4,8]    findWorstP[1,4]  -9.2587401385607310e-02
    x[4,8]    findWorstP[2,4]  -8.9124942172876420e-02
    x[4,8]    findWorstP[3,4]  -9.1408982146143944e-02
    x[4,8]    findWorstP[4,1]  7.7717886543005849e-02
    x[4,8]    findWorstP[4,2]  7.7717886543005849e-02
    x[4,8]    findWorstP[4,3]  7.7717886543005849e-02
    x[4,9]    allocateEach[9]  1
    x[4,9]    findWorstP[1,4]  -1.2167447572517455e-01
    x[4,9]    findWorstP[2,4]  -1.2067186221130922e-01
    x[4,9]    findWorstP[3,4]  -4.2678998711577404e-02
    x[4,9]    findWorstP[4,1]  9.5710998192966468e-02
    x[4,9]    findWorstP[4,2]  9.5710998192966468e-02
    x[4,9]    findWorstP[4,3]  9.5710998192966468e-02
    x[4,10]   allocateEach[10]  1
    x[4,10]   findWorstP[1,4]  -1.2939009250730849e-01
    x[4,10]   findWorstP[2,4]  -3.1137681933027295e-02
    x[4,10]   findWorstP[3,4]  -1.1273697772869504e-02
    x[4,10]   findWorstP[4,1]  9.4212859283055589e-02
    x[4,10]   findWorstP[4,2]  9.4212859283055589e-02
    x[4,10]   findWorstP[4,3]  9.4212859283055589e-02
    x[4,11]   allocateEach[11]  1
    x[4,11]   findWorstP[1,4]  -3.1690093842190278e-02
    x[4,11]   findWorstP[2,4]  -3.0639479022098858e-02
    x[4,11]   findWorstP[3,4]  -1.1491119087060558e-01
    x[4,11]   findWorstP[4,1]  8.0621495976647573e-03
    x[4,11]   findWorstP[4,2]  8.0621495976647573e-03
    x[4,11]   findWorstP[4,3]  8.0621495976647573e-03
    x[4,12]   allocateEach[12]  1
    x[4,12]   findWorstP[1,4]  -3.3652370082629189e-02
    x[4,12]   findWorstP[2,4]  -8.2256859186505826e-02
    x[4,12]   findWorstP[3,4]  -1.1041321553469539e-01
    x[4,12]   findWorstP[4,1]  7.1756220365422341e-02
    x[4,12]   findWorstP[4,2]  7.1756220365422341e-02
    x[4,12]   findWorstP[4,3]  7.1756220365422341e-02
    x[4,13]   allocateEach[13]  1
    x[4,13]   findWorstP[1,4]  -1.0358682738643495e-01
    x[4,13]   findWorstP[2,4]  -2.2241201380733783e-02
    x[4,13]   findWorstP[3,4]  -0.035753727222529
    x[4,13]   findWorstP[4,1]  4.7152763834617820e-02
    x[4,13]   findWorstP[4,2]  4.7152763834617820e-02
    x[4,13]   findWorstP[4,3]  4.7152763834617820e-02
    x[4,14]   allocateEach[14]  1
    x[4,14]   findWorstP[1,4]  -3.0008142778956928e-02
    x[4,14]   findWorstP[2,4]  -5.4499839863350066e-02
    x[4,14]   findWorstP[3,4]  -7.6833701454076961e-02
    x[4,14]   findWorstP[4,1]  1.0639875206573277e-01
    x[4,14]   findWorstP[4,2]  1.0639875206573277e-01
    x[4,14]   findWorstP[4,3]  1.0639875206573277e-01
    MARKER    'MARKER'                 'INTEND'
RHS
    RHS1      allocateEach[1]  1
    RHS1      allocateEach[2]  1
    RHS1      allocateEach[3]  1
    RHS1      allocateEach[4]  1
    RHS1      allocateEach[5]  1
    RHS1      allocateEach[6]  1
    RHS1      allocateEach[7]  1
    RHS1      allocateEach[8]  1
    RHS1      allocateEach[9]  1
    RHS1      allocateEach[10]  1
    RHS1      allocateEach[11]  1
    RHS1      allocateEach[12]  1
    RHS1      allocateEach[13]  1
    RHS1      allocateEach[14]  1
    RHS1      allocateAllCash  1
BOUNDS
 UP BND1      z         1
 MI BND1      cashProportion[1]
 UP BND1      cashProportion[1]  1
 MI BND1      cashProportion[2]
 UP BND1      cashProportion[2]  1
 MI BND1      cashProportion[3]
 UP BND1      cashProportion[3]  1
 MI BND1      cashProportion[4]
 UP BND1      cashProportion[4]  1
 BV BND1      x[1,1]  
 BV BND1      x[1,2]  
 BV BND1      x[1,3]  
 BV BND1      x[1,4]  
 BV BND1      x[1,5]  
 BV BND1      x[1,6]  
 BV BND1      x[1,7]  
 BV BND1      x[1,8]  
 BV BND1      x[1,9]  
 BV BND1      x[1,10] 
 BV BND1      x[1,11] 
 BV BND1      x[1,12] 
 BV BND1      x[1,13] 
 BV BND1      x[1,14] 
 BV BND1      x[2,1]  
 BV BND1      x[2,2]  
 BV BND1      x[2,3]  
 BV BND1      x[2,4]  
 BV BND1      x[2,5]  
 BV BND1      x[2,6]  
 BV BND1      x[2,7]  
 BV BND1      x[2,8]  
 BV BND1      x[2,9]  
 BV BND1      x[2,10] 
 BV BND1      x[2,11] 
 BV BND1      x[2,12] 
 BV BND1      x[2,13] 
 BV BND1      x[2,14] 
 BV BND1      x[3,1]  
 BV BND1      x[3,2]  
 BV BND1      x[3,3]  
 BV BND1      x[3,4]  
 BV BND1      x[3,5]  
 BV BND1      x[3,6]  
 BV BND1      x[3,7]  
 BV BND1      x[3,8]  
 BV BND1      x[3,9]  
 BV BND1      x[3,10] 
 BV BND1      x[3,11] 
 BV BND1      x[3,12] 
 BV BND1      x[3,13] 
 BV BND1      x[3,14] 
 BV BND1      x[4,1]  
 BV BND1      x[4,2]  
 BV BND1      x[4,3]  
 BV BND1      x[4,4]  
 BV BND1      x[4,5]  
 BV BND1      x[4,6]  
 BV BND1      x[4,7]  
 BV BND1      x[4,8]  
 BV BND1      x[4,9]  
 BV BND1      x[4,10] 
 BV BND1      x[4,11] 
 BV BND1      x[4,12] 
 BV BND1      x[4,13] 
 BV BND1      x[4,14] 
ENDATA
